p cnf 36 346
1 5 9 13 17 21 25 29 33 0
2 6 10 14 18 22 26 30 34 0
3 7 11 15 19 23 27 31 35 0
4 8 12 16 20 24 28 32 36 0
-1 -6 0
-1 -7 0
-1 -8 0
-2 -7 0
-2 -8 0
-3 -8 0
-1 -14 0
-1 -15 0
-1 -16 0
-2 -15 0
-2 -16 0
-3 -16 0
-1 -18 0
-1 -19 0
-1 -20 0
-2 -19 0
-2 -20 0
-3 -20 0
-1 -26 0
-1 -27 0
-1 -28 0
-2 -27 0
-2 -28 0
-3 -28 0
-5 -2 0
-5 -3 0
-5 -4 0
-6 -3 0
-6 -4 0
-7 -4 0
-5 -14 0
-5 -15 0
-5 -16 0
-6 -15 0
-6 -16 0
-7 -16 0
-5 -22 0
-5 -23 0
-5 -24 0
-6 -23 0
-6 -24 0
-7 -24 0
-5 -26 0
-5 -27 0
-5 -28 0
-6 -27 0
-6 -28 0
-7 -28 0
-9 -14 0
-9 -15 0
-9 -16 0
-10 -15 0
-10 -16 0
-11 -16 0
-9 -34 0
-9 -35 0
-9 -36 0
-10 -35 0
-10 -36 0
-11 -36 0
-13 -2 0
-13 -3 0
-13 -4 0
-14 -3 0
-14 -4 0
-15 -4 0
-13 -6 0
-13 -7 0
-13 -8 0
-14 -7 0
-14 -8 0
-15 -8 0
-13 -10 0
-13 -11 0
-13 -12 0
-14 -11 0
-14 -12 0
-15 -12 0
-17 -2 0
-17 -3 0
-17 -4 0
-18 -3 0
-18 -4 0
-19 -4 0
-17 -22 0
-17 -23 0
-17 -24 0
-18 -23 0
-18 -24 0
-19 -24 0
-17 -34 0
-17 -35 0
-17 -36 0
-18 -35 0
-18 -36 0
-19 -36 0
-21 -6 0
-21 -7 0
-21 -8 0
-22 -7 0
-22 -8 0
-23 -8 0
-21 -18 0
-21 -19 0
-21 -20 0
-22 -19 0
-22 -20 0
-23 -20 0
-25 -2 0
-25 -3 0
-25 -4 0
-26 -3 0
-26 -4 0
-27 -4 0
-25 -6 0
-25 -7 0
-25 -8 0
-26 -7 0
-26 -8 0
-27 -8 0
-25 -34 0
-25 -35 0
-25 -36 0
-26 -35 0
-26 -36 0
-27 -36 0
-33 -10 0
-33 -11 0
-33 -12 0
-34 -11 0
-34 -12 0
-35 -12 0
-33 -18 0
-33 -19 0
-33 -20 0
-34 -19 0
-34 -20 0
-35 -20 0
-33 -26 0
-33 -27 0
-33 -28 0
-34 -27 0
-34 -28 0
-35 -28 0
-1 -2 0
-5 -6 0
-9 -10 0
-13 -14 0
-17 -18 0
-21 -22 0
-25 -26 0
-29 -30 0
-33 -34 0
-1 -3 0
-5 -7 0
-9 -11 0
-13 -15 0
-17 -19 0
-21 -23 0
-25 -27 0
-29 -31 0
-33 -35 0
-1 -4 0
-5 -8 0
-9 -12 0
-13 -16 0
-17 -20 0
-21 -24 0
-25 -28 0
-29 -32 0
-33 -36 0
-2 -3 0
-6 -7 0
-10 -11 0
-14 -15 0
-18 -19 0
-22 -23 0
-26 -27 0
-30 -31 0
-34 -35 0
-2 -4 0
-6 -8 0
-10 -12 0
-14 -16 0
-18 -20 0
-22 -24 0
-26 -28 0
-30 -32 0
-34 -36 0
-3 -4 0
-7 -8 0
-11 -12 0
-15 -16 0
-19 -20 0
-23 -24 0
-27 -28 0
-31 -32 0
-35 -36 0
-1 -5 0
-1 -9 0
-1 -13 0
-1 -17 0
-1 -21 0
-1 -25 0
-1 -29 0
-1 -33 0
-5 -9 0
-5 -13 0
-5 -17 0
-5 -21 0
-5 -25 0
-5 -29 0
-5 -33 0
-9 -13 0
-9 -17 0
-9 -21 0
-9 -25 0
-9 -29 0
-9 -33 0
-13 -17 0
-13 -21 0
-13 -25 0
-13 -29 0
-13 -33 0
-17 -21 0
-17 -25 0
-17 -29 0
-17 -33 0
-21 -25 0
-21 -29 0
-21 -33 0
-25 -29 0
-25 -33 0
-29 -33 0
-2 -6 0
-2 -10 0
-2 -14 0
-2 -18 0
-2 -22 0
-2 -26 0
-2 -30 0
-2 -34 0
-6 -10 0
-6 -14 0
-6 -18 0
-6 -22 0
-6 -26 0
-6 -30 0
-6 -34 0
-10 -14 0
-10 -18 0
-10 -22 0
-10 -26 0
-10 -30 0
-10 -34 0
-14 -18 0
-14 -22 0
-14 -26 0
-14 -30 0
-14 -34 0
-18 -22 0
-18 -26 0
-18 -30 0
-18 -34 0
-22 -26 0
-22 -30 0
-22 -34 0
-26 -30 0
-26 -34 0
-30 -34 0
-3 -7 0
-3 -11 0
-3 -15 0
-3 -19 0
-3 -23 0
-3 -27 0
-3 -31 0
-3 -35 0
-7 -11 0
-7 -15 0
-7 -19 0
-7 -23 0
-7 -27 0
-7 -31 0
-7 -35 0
-11 -15 0
-11 -19 0
-11 -23 0
-11 -27 0
-11 -31 0
-11 -35 0
-15 -19 0
-15 -23 0
-15 -27 0
-15 -31 0
-15 -35 0
-19 -23 0
-19 -27 0
-19 -31 0
-19 -35 0
-23 -27 0
-23 -31 0
-23 -35 0
-27 -31 0
-27 -35 0
-31 -35 0
-4 -8 0
-4 -12 0
-4 -16 0
-4 -20 0
-4 -24 0
-4 -28 0
-4 -32 0
-4 -36 0
-8 -12 0
-8 -16 0
-8 -20 0
-8 -24 0
-8 -28 0
-8 -32 0
-8 -36 0
-12 -16 0
-12 -20 0
-12 -24 0
-12 -28 0
-12 -32 0
-12 -36 0
-16 -20 0
-16 -24 0
-16 -28 0
-16 -32 0
-16 -36 0
-20 -24 0
-20 -28 0
-20 -32 0
-20 -36 0
-24 -28 0
-24 -32 0
-24 -36 0
-28 -32 0
-28 -36 0
-32 -36 0
